solving instance mcnd arcs c25_100_30_V_T_5 3 6 pardivexp
presolving:
(round 1, fast)       68 del vars, 192 del conss, 0 add conss, 139 chg bounds, 0 chg sides, 18 chg coeffs, 0 upgd conss, 0 impls, 0 clqs
(round 2, fast)       93 del vars, 192 del conss, 0 add conss, 140 chg bounds, 0 chg sides, 18 chg coeffs, 0 upgd conss, 0 impls, 0 clqs
(round 3, exhaustive) 93 del vars, 192 del conss, 0 add conss, 140 chg bounds, 0 chg sides, 19 chg coeffs, 2969 upgd conss, 0 impls, 0 clqs
   (0.1s) probing cycle finished: starting next cycle
   (0.1s) symmetry computation started: requiring (bin +, int +, cont +), (fixed: bin -, int -, cont -)
   (0.1s) no symmetry present (symcode time: 0.00)
presolving (4 rounds: 4 fast, 2 medium, 2 exhaustive):
 93 deleted vars, 192 deleted constraints, 0 added constraints, 140 tightened bounds, 0 added holes, 0 changed sides, 0 changed coefficients
 3737 implications, 10 cliques
presolved problem has 3257 variables (96 bin, 0 int, 0 impl, 3161 cont) and 4008 constraints
   2969 constraints of type <varbound>
    939 constraints of type <linear>
    100 constraints of type <nonlinear>
Presolving Time: 0.09

 time | node  | left  |LP iter|LP it/n|mem/heur|mdpt |vars |cons |rows |cuts |sepa|confs|strbr|  dualbound   | primalbound  |  gap   | compl. 
t 5.9s|     1 |     0 | 15730 |     - |  trysol|   0 |3557 |4008 |4608 |   0 |  0 |   0 |   0 | 1.555266e+03 | 1.356702e+05 |8623.28%| unknown
 53.1s|     1 |     0 | 99168 |     - |    39M |   0 |3557 |4008 |4608 |   0 |  0 |   0 |   0 | 5.472578e+03 | 1.356702e+05 |2379.09%| unknown
i66.7s|     1 |     0 |112589 |     - |  oneopt|   0 |3557 |4008 |4608 |   0 |  0 |   0 |   0 | 5.472578e+03 | 7.280938e+04 |1230.44%| unknown
 72.0s|     1 |     0 |125340 |     - |    41M |   0 |3557 |4008 |4708 | 100 |  1 |   0 |   0 | 6.740262e+03 | 7.280938e+04 | 980.22%| unknown
 72.1s|     1 |     0 |125340 |     - |    41M |   0 |3557 |4008 |4708 | 100 |  1 |   0 |   0 | 6.740262e+03 | 7.280938e+04 | 980.22%| unknown
 81.5s|     1 |     0 |143426 |     - |    42M |   0 |3557 |4008 |4783 | 175 |  2 |   0 |   0 | 7.325655e+03 | 7.280938e+04 | 893.90%| unknown
 88.5s|     1 |     0 |157709 |     - |    43M |   0 |3557 |4008 |4841 | 233 |  3 |   0 |   0 | 7.731999e+03 | 7.280938e+04 | 841.66%| unknown
  142s|     1 |     0 |240512 |     - |    43M |   0 |3557 |4008 |4863 | 255 |  4 |   0 |   0 | 7.761490e+03 | 7.280938e+04 | 838.09%| unknown
  146s|     1 |     0 |251556 |     - |    44M |   0 |3557 |4008 |4894 | 286 |  5 |   0 |   0 | 7.785709e+03 | 7.280938e+04 | 835.17%| unknown
  247s|     1 |     0 |414318 |     - |    44M |   0 |3557 |4008 |4912 | 304 |  6 |   0 |   0 | 7.796057e+03 | 7.280938e+04 | 833.93%| unknown
  257s|     1 |     0 |434234 |     - |    45M |   0 |3557 |4008 |4928 | 320 |  7 |   0 |   0 | 7.801301e+03 | 7.280938e+04 | 833.30%| unknown
  306s|     1 |     0 |511625 |     - |    45M |   0 |3557 |4008 |4938 | 330 |  8 |   0 |   0 | 7.801945e+03 | 7.280938e+04 | 833.22%| unknown
  311s|     1 |     0 |522733 |     - |    46M |   0 |3557 |4008 |4948 | 340 |  9 |   0 |   0 | 7.802881e+03 | 7.280938e+04 | 833.11%| unknown
  311s|     1 |     0 |524013 |     - |    46M |   0 |3557 |4008 |4958 | 350 | 10 |   0 |   0 | 7.805525e+03 | 7.280938e+04 | 832.79%| unknown
  361s|     1 |     0 |603796 |     - |    47M |   0 |3557 |4008 |4967 | 359 | 11 |   0 |   0 | 7.807912e+03 | 7.280938e+04 | 832.51%| unknown
 time | node  | left  |LP iter|LP it/n|mem/heur|mdpt |vars |cons |rows |cuts |sepa|confs|strbr|  dualbound   | primalbound  |  gap   | compl. 
  368s|     1 |     0 |617996 |     - |    48M |   0 |3557 |4008 |4977 | 369 | 12 |   0 |   0 | 7.808499e+03 | 7.280938e+04 | 832.44%| unknown
  374s|     1 |     0 |631712 |     - |    48M |   0 |3557 |4008 |4981 | 373 | 13 |   0 |   0 | 7.808634e+03 | 7.280938e+04 | 832.42%| unknown
  374s|     1 |     0 |631778 |     - |    49M |   0 |3557 |4008 |4983 | 375 | 14 |   0 |   0 | 7.808681e+03 | 7.280938e+04 | 832.42%| unknown
  374s|     1 |     0 |632308 |     - |    49M |   0 |3557 |4008 |4410 | 379 | 15 |   0 |   0 | 7.809189e+03 | 7.280938e+04 | 832.36%| unknown
  375s|     1 |     0 |633597 |     - |    49M |   0 |3557 |4008 |4413 | 382 | 16 |   0 |   0 | 7.809908e+03 | 7.280938e+04 | 832.27%| unknown
  375s|     1 |     0 |633602 |     - |    50M |   0 |3557 |4008 |4416 | 385 | 17 |   0 |   0 | 7.809910e+03 | 7.280938e+04 | 832.27%| unknown
  382s|     1 |     0 |648846 |     - |    50M |   0 |3557 |4008 |4421 | 390 | 18 |   0 |   0 | 7.810485e+03 | 7.280938e+04 | 832.20%| unknown
  387s|     1 |     0 |660132 |     - |    51M |   0 |3557 |4008 |4432 | 401 | 19 |   0 |   0 | 7.810909e+03 | 7.280938e+04 | 832.15%| unknown
  391s|     1 |     0 |670723 |     - |    51M |   0 |3557 |4008 |4439 | 408 | 20 |   0 |   0 | 7.811705e+03 | 7.280938e+04 | 832.05%| unknown
  428s|     1 |     0 |729617 |     - |    51M |   0 |3557 |4008 |4387 | 421 | 21 |   0 |   0 | 7.811972e+03 | 7.280938e+04 | 832.02%| unknown
  489s|     1 |     0 |829484 |     - |    51M |   0 |3557 |4008 |4395 | 429 | 22 |   0 |   0 | 7.812242e+03 | 7.280938e+04 | 831.99%| unknown
  489s|     1 |     0 |829542 |     - |    51M |   0 |3557 |4008 |4405 | 439 | 23 |   0 |   0 | 7.812363e+03 | 7.280938e+04 | 831.98%| unknown
  489s|     1 |     0 |829710 |     - |    52M |   0 |3557 |4009 |4414 | 448 | 24 |   1 |   0 | 7.812840e+03 | 7.280938e+04 | 831.92%| unknown
  494s|     1 |     0 |841190 |     - |    52M |   0 |3557 |4009 |4421 | 455 | 25 |   1 |   0 | 7.813004e+03 | 7.280938e+04 | 831.90%| unknown
  570s|     1 |     0 |967254 |     - |    52M |   0 |3557 |4009 |4441 | 475 | 26 |   1 |   0 | 7.813058e+03 | 7.280938e+04 | 831.89%| unknown
 time | node  | left  |LP iter|LP it/n|mem/heur|mdpt |vars |cons |rows |cuts |sepa|confs|strbr|  dualbound   | primalbound  |  gap   | compl. 
  577s|     1 |     0 |981899 |     - |    52M |   0 |3557 |4009 |4432 | 495 | 27 |   1 |   0 | 7.813142e+03 | 7.280938e+04 | 831.88%| unknown
  577s|     1 |     0 |981938 |     - |    52M |   0 |3557 |4009 |4446 | 509 | 28 |   1 |   0 | 7.813216e+03 | 7.280938e+04 | 831.87%| unknown
  577s|     1 |     0 |981956 |     - |    52M |   0 |3557 |4009 |4455 | 518 | 29 |   1 |   0 | 7.813232e+03 | 7.280938e+04 | 831.87%| unknown
  577s|     1 |     0 |982209 |     - |    52M |   0 |3557 |4009 |4462 | 525 | 30 |   1 |   0 | 7.813383e+03 | 7.280938e+04 | 831.85%| unknown
  590s|     1 |     0 |  1040k|     - |    52M |   0 |3557 |3977 |4424 | 525 | 30 |   1 |   0 | 7.968650e+03 | 7.280938e+04 | 813.70%| unknown
  595s|     1 |     0 |  1051k|     - |    52M |   0 |3557 |3977 |4452 | 553 | 31 |   1 |   0 | 8.177385e+03 | 7.280938e+04 | 790.37%| unknown
  599s|     1 |     0 |  1062k|     - |    52M |   0 |3557 |3977 |4478 | 579 | 32 |   1 |   0 | 8.255606e+03 | 7.280938e+04 | 781.94%| unknown
  601s|     1 |     0 |  1069k|     - |    52M |   0 |3557 |3977 |4507 | 608 | 33 |   1 |   0 | 8.300624e+03 | 7.280938e+04 | 777.16%| unknown
  601s|     1 |     0 |  1069k|     - |    52M |   0 |3557 |3977 |4525 | 626 | 34 |   1 |   0 | 8.301490e+03 | 7.280938e+04 | 777.06%| unknown
  601s|     1 |     0 |  1070k|     - |    52M |   0 |3557 |3977 |4539 | 640 | 35 |   1 |   0 | 8.303386e+03 | 7.280938e+04 | 776.86%| unknown
  602s|     1 |     0 |  1072k|     - |    52M |   0 |3557 |3977 |4490 | 657 | 36 |   1 |   0 | 8.305204e+03 | 7.280938e+04 | 776.67%| unknown
  602s|     1 |     0 |  1072k|     - |    52M |   0 |3557 |3977 |4502 | 669 | 37 |   1 |   0 | 8.305674e+03 | 7.280938e+04 | 776.62%| unknown
  602s|     1 |     0 |  1073k|     - |    52M |   0 |3557 |3977 |4513 | 680 | 38 |   1 |   0 | 8.305999e+03 | 7.280938e+04 | 776.59%| unknown
  603s|     1 |     0 |  1073k|     - |    52M |   0 |3557 |3977 |4524 | 691 | 39 |   1 |   0 | 8.306358e+03 | 7.280938e+04 | 776.55%| unknown
  603s|     1 |     0 |  1074k|     - |    52M |   0 |3557 |3977 |4533 | 700 | 40 |   1 |   0 | 8.307537e+03 | 7.280938e+04 | 776.43%| unknown
 time | node  | left  |LP iter|LP it/n|mem/heur|mdpt |vars |cons |rows |cuts |sepa|confs|strbr|  dualbound   | primalbound  |  gap   | compl. 
  603s|     1 |     0 |  1076k|     - |    52M |   0 |3557 |3977 |4543 | 710 | 41 |   1 |   0 | 8.307735e+03 | 7.280938e+04 | 776.40%| unknown
  604s|     1 |     0 |  1076k|     - |    52M |   0 |3557 |3977 |4453 | 719 | 42 |   1 |   0 | 8.307866e+03 | 7.280938e+04 | 776.39%| unknown
  604s|     1 |     0 |  1076k|     - |    52M |   0 |3557 |3977 |4459 | 725 | 43 |   1 |   0 | 8.307877e+03 | 7.280938e+04 | 776.39%| unknown
  604s|     1 |     0 |  1076k|     - |    52M |   0 |3557 |3977 |4462 | 728 | 44 |   1 |   0 | 8.307905e+03 | 7.280938e+04 | 776.39%| unknown
  604s|     1 |     0 |  1076k|     - |    52M |   0 |3557 |3977 |4464 | 730 | 45 |   1 |   0 | 8.307918e+03 | 7.280938e+04 | 776.39%| unknown
  604s|     1 |     0 |  1076k|     - |    52M |   0 |3557 |3977 |4465 | 731 | 46 |   1 |   0 | 8.307925e+03 | 7.280938e+04 | 776.38%| unknown
  991s|     1 |     2 |  1126k|     - |    54M |   0 |3557 |3989 |4465 | 731 | 47 |  13 |  20 | 8.307925e+03 | 7.280938e+04 | 776.38%| unknown
 1375s|   100 |   101 |  1882k|8775.7 |    77M |  17 |3557 |3995 |4477 |3091 |  2 |  26 | 473 | 8.443568e+03 | 7.280938e+04 | 762.31%| unknown
 1591s|   200 |   199 |  2432k|7130.3 |    87M |  21 |3557 |3996 |4465 |4175 |  2 |  28 | 552 | 8.478090e+03 | 7.280938e+04 | 758.79%| unknown
L1619s|   201 |   200 |  2438k|7124.4 |    rins|  21 |3557 |3996 |4424 |4177 |  2 |  28 | 552 | 8.492426e+03 | 7.141951e+04 | 740.98%| unknown
 1733s|   300 |   299 |  2752k|5816.7 |    91M |  33 |3557 |3994 |4486 |5051 |  2 |  28 | 604 | 8.492426e+03 | 7.141951e+04 | 740.98%| unknown
 1850s|   400 |   397 |  3042k|5083.6 |    93M |  33 |3557 |3994 |4484 |6229 |  2 |  31 | 641 | 8.512788e+03 | 7.141951e+04 | 738.97%| unknown
L1893s|   408 |   405 |  3066k|5042.8 |    rins|  33 |3557 |3994 |4501 |6264 |  2 |  31 | 643 | 8.512788e+03 | 7.139067e+04 | 738.63%| unknown
 1975s|   500 |   495 |  3307k|4596.4 |    97M |  33 |3557 |3995 |4472 |7285 |  2 |  33 | 681 | 8.512788e+03 | 7.139067e+04 | 738.63%| unknown
 2063s|   600 |   593 |  3526k|4194.3 |   101M |  33 |3557 |3994 |4515 |8237 |  1 |  35 | 700 | 8.512788e+03 | 7.139067e+04 | 738.63%| unknown
 time | node  | left  |LP iter|LP it/n|mem/heur|mdpt |vars |cons |rows |cuts |sepa|confs|strbr|  dualbound   | primalbound  |  gap   | compl. 
 2196s|   700 |   689 |  3709k|3856.8 |   105M |  45 |3557 |3996 |4575 |8944 |  6 |  39 | 729 | 8.512788e+03 | 7.139067e+04 | 738.63%| unknown
 2419s|   800 |   785 |  3790k|3475.0 |   113M |  51 |3557 |3995 |4586 |9978 |  7 |  39 | 758 | 8.513433e+03 | 7.139067e+04 | 738.57%| unknown
 2736s|   900 |   881 |  3890k|3199.7 |   116M |  53 |3557 |3994 |4502 |  10k|  2 |  40 | 766 | 8.528738e+03 | 7.139067e+04 | 737.06%| unknown
 3119s|  1000 |   979 |  3927k|2916.6 |   122M |  65 |3557 |3994 |4488 |  11k|  3 |  41 | 768 | 8.528738e+03 | 7.139067e+04 | 737.06%| unknown
 3563s|  1100 |  1073 |  3981k|2700.3 |   126M |  69 |3557 |3995 |4558 |  11k|  2 |  42 | 776 | 8.528738e+03 | 7.139067e+04 | 737.06%| unknown

SCIP Status        : solving was interrupted [time limit reached]
Solving Time (sec) : 3600.75
Solving Nodes      : 1103
Primal Bound       : +7.13906705884627e+04 (4 solutions)
Dual Bound         : +8.52873825749286e+03
Gap                : 737.06 %
f0 = 170.36074119813088
f0 = 0.6449181865138975
f0 = 2.5655568897160257
f0 = 0.8248953548433576
f0 = 170.36074119813088
f0 = 6.776493284012649
f0 = 1.618912273943916
f0 = 1.4618733721662505
f0 = 1.479518192590706
f0 = 3.6868852276902584
f0 = 170.36074119813088
f0 = 7.965754180621044
f0 = 0.4808213565664489
f0 = 170.36074119813088
f0 = 4.360035126883287
f0 = 0.5822790740070757
f0 = 1.9744554054967207
f0 = 170.36074119813088
f0 = 5.123173610241044
f0 = 0.12792494807731214
f0 = 170.36074119813088
f0 = 1.6947850017690798
f0 = 7.856356293989416
f0 = 2.6608389200080937
f0 = 0.5672809766462876
f0 = 170.36074119813088
f0 = 0.8504803444588201
f0 = 2.158843778932295
f0 = 0.607864063622538
f0 = 2.9122776110566027
f0 = 3.34281122941335
f0 = 170.36074119813088
f0 = 10.442204727193557
f0 = 4.473844218621034
f0 = 170.36074119813088
f0 = 0.5134642743516941
f0 = 4.0935983384739885
f0 = 2.4614524492117305
f0 = 0.8372467291404774
f0 = 6.239208502087939
f0 = 1.678904663387069
f0 = 170.36074119813088
f0 = 1.2580756962637734
f0 = 6.254206599448727
f0 = 170.36074119813088
f0 = 2.779059216851952
f0 = 3.4045681008989495
f0 = 5.852786934792334
f0 = 6.801196032606892
f0 = 170.36074119813088
f0 = 3.9656733903966748
f0 = 2.546147587249122
f0 = 5.660458392165754
f0 = 2.764061119491164
f0 = 5.282859235082378
f0 = 170.36074119813088
f0 = 10.586010013652881
f0 = 7.946344878154144
f0 = 10.685703249051066
f0 = 170.36074119813088
f0 = 0.46141205409954633
f0 = 170.36074119813088
f0 = 3.1725387123173414
f0 = 170.36074119813088
f0 = 5.455778475242055
f0 = 2.0194496975790845
f0 = 0.6546228377473488
f0 = 12.501355270727677
f0 = 170.36074119813088
f0 = 2.674954776347658
f0 = 10.77039838708846
f0 = 2.7490630221303767
f0 = 1.2580756962637734
f0 = 170.36074119813088
f0 = 170.36074119813088
f0 = 0.5531651203067219
f0 = 170.36074119813088
f0 = 3.064905307728153
f0 = 3.7856962220672155
f0 = 7.344656501680164
f0 = 0.8266598368858034
f0 = 170.36074119813088
f0 = 1.887995785416882
f0 = 7.366712527210734
f0 = 170.36074119813088
f0 = 1.9568105850722641
f0 = 12.498708547664007
f0 = 2.35293680360132
f0 = 10.943317627248142
f0 = 170.36074119813088
f0 = 2.341467670325422
f0 = 0.6757966222566972
f0 = 3.482205310766559
f0 = 170.36074119813088
f0 = 1.583622633095002
f0 = 11.433843635048037
f0 = 170.36074119813088
f0 = 5.485774669963634
f0 = 0.5161109974153626
f0 = 5.24315838912735
primal_bound = 71390.67058846273, dual_bound = 8528.738257492863, gap = 88.05342744760381, time = 3603.76
